min: c;

c = 4.66225790196189 * u3_t10_h0 + 3.71935708553235 * u3_t10_h1 + 3.18991603363559 * u3_t4_h2 + 3.18991603363559 * u3_t10_h2 + 2.99296347832497 * u3_t4_h3 + 2.99296347832497 * u3_t10_h3 + 2.95565730167925 * u3_t4_h4 + 2.95565730167925 * u3_t10_h4 + 3.51946813546008 * u3_t4_h5 + 3.51946813546008 * u3_t10_h5 + 4.29600534378369 * u3_t4_h6 + 4.29600534378369 * u3_t10_h6 + 3.84589551011439 * u3_t4_h7 + 3.84589551011439 * u3_t9_h7 + 3.84589551011439 * u3_t10_h7 + 5.26896693652411 * u3_t4_h8 + 5.26896693652411 * u3_t9_h8 + 4.87525599771488 * u3_t4_h9 + 4.87525599771488 * u3_t9_h9 + 5.84618246632249 * u3_t4_h10 + 5.84618246632249 * u3_t6_h10 + 5.84618246632249 * u3_t9_h10 + 3.92918354736951 * u3_t3_h11 + 3.92918354736951 * u3_t4_h11 + 3.92918354736951 * u3_t6_h11 + 3.92918354736951 * u3_t9_h11 + 5.87146373131672 * u3_t3_h12 + 5.87146373131672 * u3_t4_h12 + 5.87146373131672 * u3_t6_h12 + 5.87146373131672 * u3_t9_h12 + 4.83724348205868 * u3_t3_h13 + 4.83724348205868 * u3_t4_h13 + 4.83724348205868 * u3_t5_h13 + 4.83724348205868 * u3_t6_h13 + 4.83724348205868 * u3_t9_h13 + 5.38319461327561 * u3_t3_h14 + 5.38319461327561 * u3_t4_h14 + 5.38319461327561 * u3_t5_h14 + 5.38319461327561 * u3_t6_h14 + 5.38319461327561 * u3_t9_h14 + 6.25391786164725 * u3_t2_h15 + 6.25391786164725 * u3_t3_h15 + 6.25391786164725 * u3_t4_h15 + 6.25391786164725 * u3_t5_h15 + 6.25391786164725 * u3_t6_h15 + 6.25391786164725 * u3_t9_h15 + 6.37186844887613 * u3_t2_h16 + 6.37186844887613 * u3_t4_h16 + 6.37186844887613 * u3_t5_h16 + 6.37186844887613 * u3_t6_h16 + 6.37186844887613 * u3_t9_h16 + 6.01607008960438 * u3_t2_h17 + 6.01607008960438 * u3_t4_h17 + 6.01607008960438 * u3_t6_h17 + 6.01607008960438 * u3_t9_h17 + 6.36509480585812 * u3_t2_h18 + 6.36509480585812 * u3_t6_h18 + 6.36509480585812 * u3_t9_h18 + 5.82405800019901 * u3_t2_h19 + 5.82405800019901 * u3_t9_h19 + 5.15432063370679 * u3_t1_h20 + 5.15432063370679 * u3_t2_h20 + 5.15432063370679 * u3_t8_h20 + 5.15432063370679 * u3_t9_h20 + 5.36391512842289 * u3_t1_h21 + 5.36391512842289 * u3_t2_h21 + 5.36391512842289 * u3_t7_h21 + 5.36391512842289 * u3_t8_h21 + 5.36391512842289 * u3_t9_h21 + 5.17379006733505 * u3_t1_h22 + 5.17379006733505 * u3_t7_h22 + 5.17379006733505 * u3_t8_h22 + 4.99757560878583 * u3_t1_h23 + 4.99757560878583 * u3_t7_h23 + 4.99757560878583 * u3_t8_h23;
0 <= u3_t1_h20 <= 1;
0 <= u3_t1_h21 <= 1;
0 <= u3_t1_h22 <= 1;
0 <= u3_t1_h23 <= 1;
u3_t1_h20 + u3_t1_h21 + u3_t1_h22 + u3_t1_h23 = 2;
0 <= u3_t2_h15 <= 1;
0 <= u3_t2_h16 <= 1;
0 <= u3_t2_h17 <= 1;
0 <= u3_t2_h18 <= 1;
0 <= u3_t2_h19 <= 1;
0 <= u3_t2_h20 <= 1;
0 <= u3_t2_h21 <= 1;
u3_t2_h15 + u3_t2_h16 + u3_t2_h17 + u3_t2_h18 + u3_t2_h19 + u3_t2_h20 + u3_t2_h21 = 3;
0 <= u3_t3_h11 <= 1;
0 <= u3_t3_h12 <= 1;
0 <= u3_t3_h13 <= 1;
0 <= u3_t3_h14 <= 1;
0 <= u3_t3_h15 <= 1;
u3_t3_h11 + u3_t3_h12 + u3_t3_h13 + u3_t3_h14 + u3_t3_h15 = 2;
0 <= u3_t4_h2 <= 1;
0 <= u3_t4_h3 <= 1;
0 <= u3_t4_h4 <= 1;
0 <= u3_t4_h5 <= 1;
0 <= u3_t4_h6 <= 1;
0 <= u3_t4_h7 <= 1;
0 <= u3_t4_h8 <= 1;
0 <= u3_t4_h9 <= 1;
0 <= u3_t4_h10 <= 1;
0 <= u3_t4_h11 <= 1;
0 <= u3_t4_h12 <= 1;
0 <= u3_t4_h13 <= 1;
0 <= u3_t4_h14 <= 1;
0 <= u3_t4_h15 <= 1;
0 <= u3_t4_h16 <= 1;
0 <= u3_t4_h17 <= 1;
u3_t4_h2 + u3_t4_h3 + u3_t4_h4 + u3_t4_h5 + u3_t4_h6 + u3_t4_h7 + u3_t4_h8 + u3_t4_h9 + u3_t4_h10 + u3_t4_h11 + u3_t4_h12 + u3_t4_h13 + u3_t4_h14 + u3_t4_h15 + u3_t4_h16 + u3_t4_h17 = 3;
0 <= u3_t5_h13 <= 1;
0 <= u3_t5_h14 <= 1;
0 <= u3_t5_h15 <= 1;
0 <= u3_t5_h16 <= 1;
u3_t5_h13 + u3_t5_h14 + u3_t5_h15 + u3_t5_h16 = 2;
0 <= u3_t6_h10 <= 1;
0 <= u3_t6_h11 <= 1;
0 <= u3_t6_h12 <= 1;
0 <= u3_t6_h13 <= 1;
0 <= u3_t6_h14 <= 1;
0 <= u3_t6_h15 <= 1;
0 <= u3_t6_h16 <= 1;
0 <= u3_t6_h17 <= 1;
0 <= u3_t6_h18 <= 1;
u3_t6_h10 + u3_t6_h11 + u3_t6_h12 + u3_t6_h13 + u3_t6_h14 + u3_t6_h15 + u3_t6_h16 + u3_t6_h17 + u3_t6_h18 = 2;
0 <= u3_t7_h21 <= 1;
0 <= u3_t7_h22 <= 1;
0 <= u3_t7_h23 <= 1;
u3_t7_h21 + u3_t7_h22 + u3_t7_h23 = 2;
0 <= u3_t8_h20 <= 1;
0 <= u3_t8_h21 <= 1;
0 <= u3_t8_h22 <= 1;
0 <= u3_t8_h23 <= 1;
u3_t8_h20 + u3_t8_h21 + u3_t8_h22 + u3_t8_h23 = 1;
0 <= u3_t9_h7 <= 1;
0 <= u3_t9_h8 <= 1;
0 <= u3_t9_h9 <= 1;
0 <= u3_t9_h10 <= 1;
0 <= u3_t9_h11 <= 1;
0 <= u3_t9_h12 <= 1;
0 <= u3_t9_h13 <= 1;
0 <= u3_t9_h14 <= 1;
0 <= u3_t9_h15 <= 1;
0 <= u3_t9_h16 <= 1;
0 <= u3_t9_h17 <= 1;
0 <= u3_t9_h18 <= 1;
0 <= u3_t9_h19 <= 1;
0 <= u3_t9_h20 <= 1;
0 <= u3_t9_h21 <= 1;
u3_t9_h7 + u3_t9_h8 + u3_t9_h9 + u3_t9_h10 + u3_t9_h11 + u3_t9_h12 + u3_t9_h13 + u3_t9_h14 + u3_t9_h15 + u3_t9_h16 + u3_t9_h17 + u3_t9_h18 + u3_t9_h19 + u3_t9_h20 + u3_t9_h21 = 2;
0 <= u3_t10_h0 <= 1;
0 <= u3_t10_h1 <= 1;
0 <= u3_t10_h2 <= 1;
0 <= u3_t10_h3 <= 1;
0 <= u3_t10_h4 <= 1;
0 <= u3_t10_h5 <= 1;
0 <= u3_t10_h6 <= 1;
0 <= u3_t10_h7 <= 1;
u3_t10_h0 + u3_t10_h1 + u3_t10_h2 + u3_t10_h3 + u3_t10_h4 + u3_t10_h5 + u3_t10_h6 + u3_t10_h7 = 3;
